60
1 0 27
2 0 28
2 1 39
3 0 34
3 1 19
3 2 4
4 0 50
4 1 34
4 2 18
4 3 9
5 0 4
5 1 1
5 2 13
5 3 46
5 4 14
6 0 12
6 1 2
6 2 47
6 3 11
6 4 19
6 5 10
7 0 14
7 1 28
7 2 2
7 3 13
7 4 38
7 5 14
7 6 26
8 0 32
8 1 15
8 2 27
8 3 41
8 4 28
8 5 22
8 6 19
8 7 33
9 0 43
9 1 41
9 2 37
9 3 29
9 4 42
9 5 24
9 6 17
9 7 3
9 8 20
10 0 13
10 1 43
10 2 49
10 3 16
10 4 28
10 5 7
10 6 47
10 7 10
10 8 17
10 9 15
11 0 21
11 1 26
11 2 11
11 3 11
11 4 19
11 5 48
11 6 27
11 7 31
11 8 15
11 9 32
11 10 25
12 0 36
12 1 23
12 2 10
12 3 15
12 4 13
12 5 45
12 6 42
12 7 35
12 8 15
12 9 26
12 10 26
12 11 1
13 0 5
13 1 17
13 2 8
13 3 46
13 4 4
13 5 29
13 6 28
13 7 42
13 8 22
13 9 14
13 10 9
13 11 44
13 12 11
14 0 38
14 1 8
14 2 9
14 3 34
14 4 37
14 5 13
14 6 31
14 7 21
14 8 11
14 9 16
14 10 2
14 11 21
14 12 24
14 13 38
15 0 14
15 1 8
15 2 34
15 3 9
15 4 50
15 5 18
15 6 36
15 7 33
15 8 40
15 9 49
15 10 37
15 11 46
15 12 13
15 13 30
15 14 12
16 0 4
16 1 43
16 2 14
16 3 33
16 4 34
16 5 49
16 6 30
16 7 42
16 8 20
16 9 22
16 10 12
16 11 46
16 12 19
16 13 47
16 14 33
16 15 19
17 0 14
17 1 46
17 2 20
17 3 22
17 4 25
17 5 22
17 6 10
17 7 46
17 8 1
17 9 38
17 10 7
17 11 13
17 12 42
17 13 22
17 14 9
17 15 26
17 16 4
18 0 23
18 1 48
18 2 6
18 3 12
18 4 3
18 5 34
18 6 12
18 7 46
18 8 16
18 9 33
18 10 24
18 11 11
18 12 13
18 13 25
18 14 37
18 15 39
18 16 27
18 17 11
19 0 14
19 1 33
19 2 40
19 3 39
19 4 2
19 5 3
19 6 48
19 7 34
19 8 15
19 9 14
19 10 24
19 11 44
19 12 43
19 13 25
19 14 8
19 15 35
19 16 16
19 17 15
19 18 39
20 0 6
20 1 13
20 2 45
20 3 13
20 4 4
20 5 27
20 6 39
20 7 23
20 8 43
20 9 34
20 10 40
20 11 6
20 12 47
20 13 9
20 14 14
20 15 39
20 16 18
20 17 21
20 18 28
20 19 7
21 0 49
21 1 12
21 2 50
21 3 36
21 4 49
21 5 27
21 6 22
21 7 21
21 8 17
21 9 13
21 10 22
21 11 32
21 12 17
21 13 47
21 14 9
21 15 37
21 16 20
21 17 20
21 18 23
21 19 7
21 20 28
22 0 12
22 1 21
22 2 32
22 3 22
22 4 26
22 5 38
22 6 9
22 7 32
22 8 27
22 9 34
22 10 26
22 11 1
22 12 28
22 13 46
22 14 24
22 15 45
22 16 4
22 17 13
22 18 36
22 19 17
22 20 45
22 21 41
23 0 10
23 1 20
23 2 47
23 3 31
23 4 33
23 5 16
23 6 48
23 7 28
23 8 46
23 9 32
23 10 13
23 11 31
23 12 49
23 13 23
23 14 48
23 15 39
23 16 41
23 17 10
23 18 44
23 19 19
23 20 34
23 21 41
23 22 38
24 0 27
24 1 7
24 2 22
24 3 19
24 4 49
24 5 17
24 6 20
24 7 43
24 8 24
24 9 50
24 10 22
24 11 17
24 12 30
24 13 13
24 14 38
24 15 30
24 16 33
24 17 19
24 18 41
24 19 16
24 20 38
24 21 40
24 22 9
24 23 19
25 0 34
25 1 21
25 2 41
25 3 46
25 4 41
25 5 23
25 6 43
25 7 15
25 8 19
25 9 48
25 10 17
25 11 20
25 12 31
25 13 15
25 14 36
25 15 24
25 16 42
25 17 22
25 18 4
25 19 32
25 20 21
25 21 1
25 22 17
25 23 1
25 24 2
26 0 46
26 1 45
26 2 30
26 3 48
26 4 26
26 5 23
26 6 39
26 7 41
26 8 26
26 9 1
26 10 46
26 11 39
26 12 48
26 13 21
26 14 21
26 15 18
26 16 49
26 17 27
26 18 13
26 19 36
26 20 16
26 21 20
26 22 30
26 23 5
26 24 35
26 25 40
27 0 34
27 1 33
27 2 27
27 3 34
27 4 14
27 5 7
27 6 36
27 7 7
27 8 41
27 9 22
27 10 6
27 11 15
27 12 6
27 13 2
27 14 21
27 15 19
27 16 47
27 17 50
27 18 15
27 19 4
27 20 9
27 21 11
27 22 49
27 23 35
27 24 50
27 25 30
27 26 34
28 0 50
28 1 31
28 2 29
28 3 30
28 4 18
28 5 23
28 6 32
28 7 24
28 8 43
28 9 31
28 10 41
28 11 30
28 12 34
28 13 5
28 14 4
28 15 7
28 16 15
28 17 17
28 18 1
28 19 50
28 20 47
28 21 36
28 22 33
28 23 31
28 24 3
28 25 12
28 26 45
28 27 16
29 0 30
29 1 30
29 2 48
29 3 8
29 4 39
29 5 12
29 6 10
29 7 32
29 8 11
29 9 6
29 10 37
29 11 23
29 12 44
29 13 18
29 14 47
29 15 48
29 16 48
29 17 49
29 18 31
29 19 26
29 20 1
29 21 11
29 22 38
29 23 38
29 24 34
29 25 25
29 26 40
29 27 50
29 28 33
30 0 41
30 1 48
30 2 44
30 3 22
30 4 40
30 5 2
30 6 43
30 7 7
30 8 23
30 9 42
30 10 37
30 11 47
30 12 41
30 13 48
30 14 46
30 15 46
30 16 43
30 17 33
30 18 33
30 19 7
30 20 7
30 21 14
30 22 29
30 23 19
30 24 10
30 25 44
30 26 29
30 27 41
30 28 3
30 29 33
31 0 13
31 1 33
31 2 30
31 3 50
31 4 50
31 5 18
31 6 3
31 7 15
31 8 11
31 9 6
31 10 25
31 11 38
31 12 13
31 13 27
31 14 31
31 15 7
31 16 7
31 17 46
31 18 19
31 19 44
31 20 47
31 21 21
31 22 26
31 23 50
31 24 42
31 25 3
31 26 23
31 27 6
31 28 36
31 29 15
31 30 27
32 0 4
32 1 50
32 2 34
32 3 33
32 4 4
32 5 15
32 6 41
32 7 22
32 8 28
32 9 43
32 10 35
32 11 31
32 12 1
32 13 42
32 14 50
32 15 22
32 16 26
32 17 49
32 18 42
32 19 50
32 20 30
32 21 17
32 22 29
32 23 3
32 24 46
32 25 50
32 26 49
32 27 32
32 28 36
32 29 36
32 30 11
32 31 17
33 0 50
33 1 22
33 2 33
33 3 16
33 4 3
33 5 35
33 6 48
33 7 25
33 8 30
33 9 26
33 10 13
33 11 7
33 12 43
33 13 17
33 14 28
33 15 47
33 16 2
33 17 46
33 18 9
33 19 25
33 20 21
33 21 29
33 22 13
33 23 33
33 24 39
33 25 38
33 26 29
33 27 45
33 28 39
33 29 13
33 30 6
33 31 3
33 32 38
34 0 14
34 1 11
34 2 5
34 3 3
34 4 10
34 5 2
34 6 12
34 7 26
34 8 45
34 9 49
34 10 12
34 11 6
34 12 38
34 13 12
34 14 20
34 15 42
34 16 48
34 17 16
34 18 18
34 19 43
34 20 23
34 21 21
34 22 6
34 23 17
34 24 43
34 25 17
34 26 36
34 27 36
34 28 5
34 29 26
34 30 23
34 31 30
34 32 36
34 33 5
35 0 29
35 1 43
35 2 45
35 3 42
35 4 48
35 5 3
35 6 32
35 7 11
35 8 48
35 9 33
35 10 6
35 11 6
35 12 36
35 13 28
35 14 22
35 15 44
35 16 28
35 17 41
35 18 41
35 19 41
35 20 50
35 21 38
35 22 41
35 23 7
35 24 43
35 25 34
35 26 50
35 27 12
35 28 10
35 29 50
35 30 14
35 31 24
35 32 19
35 33 16
35 34 41
36 0 6
36 1 11
36 2 6
36 3 12
36 4 48
36 5 50
36 6 38
36 7 18
36 8 44
36 9 8
36 10 43
36 11 1
36 12 14
36 13 26
36 14 47
36 15 19
36 16 12
36 17 29
36 18 50
36 19 1
36 20 33
36 21 13
36 22 46
36 23 28
36 24 42
36 25 48
36 26 3
36 27 35
36 28 27
36 29 50
36 30 37
36 31 43
36 32 46
36 33 35
36 34 6
36 35 42
37 0 9
37 1 37
37 2 23
37 3 13
37 4 3
37 5 20
37 6 37
37 7 26
37 8 1
37 9 1
37 10 1
37 11 34
37 12 5
37 13 34
37 14 11
37 15 22
37 16 39
37 17 47
37 18 10
37 19 12
37 20 1
37 21 8
37 22 2
37 23 46
37 24 36
37 25 35
37 26 15
37 27 35
37 28 2
37 29 7
37 30 17
37 31 15
37 32 15
37 33 4
37 34 6
37 35 19
37 36 30
38 0 21
38 1 49
38 2 47
38 3 4
38 4 6
38 5 25
38 6 49
38 7 35
38 8 32
38 9 15
38 10 34
38 11 2
38 12 44
38 13 11
38 14 6
38 15 1
38 16 48
38 17 31
38 18 45
38 19 9
38 20 26
38 21 23
38 22 34
38 23 21
38 24 11
38 25 24
38 26 47
38 27 28
38 28 17
38 29 32
38 30 44
38 31 9
38 32 15
38 33 25
38 34 12
38 35 20
38 36 50
38 37 36
39 0 10
39 1 37
39 2 11
39 3 1
39 4 43
39 5 49
39 6 49
39 7 49
39 8 47
39 9 4
39 10 9
39 11 18
39 12 31
39 13 12
39 14 5
39 15 19
39 16 35
39 17 29
39 18 23
39 19 47
39 20 29
39 21 19
39 22 10
39 23 50
39 24 25
39 25 32
39 26 14
39 27 45
39 28 17
39 29 14
39 30 48
39 31 23
39 32 37
39 33 32
39 34 24
39 35 36
39 36 23
39 37 28
39 38 46
40 0 15
40 1 47
40 2 36
40 3 8
40 4 7
40 5 44
40 6 36
40 7 29
40 8 14
40 9 10
40 10 49
40 11 9
40 12 11
40 13 19
40 14 45
40 15 29
40 16 31
40 17 22
40 18 18
40 19 27
40 20 36
40 21 46
40 22 36
40 23 13
40 24 14
40 25 25
40 26 49
40 27 33
40 28 27
40 29 13
40 30 31
40 31 6
40 32 4
40 33 39
40 34 14
40 35 34
40 36 28
40 37 15
40 38 21
40 39 27
41 0 45
41 1 49
41 2 22
41 3 16
41 4 21
41 5 38
41 6 12
41 7 28
41 8 40
41 9 16
41 10 35
41 11 8
41 12 43
41 13 24
41 14 43
41 15 2
41 16 47
41 17 33
41 18 48
41 19 9
41 20 41
41 21 14
41 22 12
41 23 28
41 24 39
41 25 21
41 26 14
41 27 42
41 28 12
41 29 8
41 30 22
41 31 45
41 32 45
41 33 7
41 34 30
41 35 23
41 36 30
41 37 13
41 38 1
41 39 16
41 40 2
42 0 47
42 1 21
42 2 2
42 3 5
42 4 6
42 5 21
42 6 11
42 7 41
42 8 37
42 9 36
42 10 23
42 11 33
42 12 31
42 13 6
42 14 39
42 15 43
42 16 3
42 17 39
42 18 2
42 19 20
42 20 18
42 21 35
42 22 43
42 23 11
42 24 49
42 25 11
42 26 31
42 27 8
42 28 27
42 29 32
42 30 48
42 31 26
42 32 18
42 33 1
42 34 40
42 35 21
42 36 24
42 37 2
42 38 22
42 39 16
42 40 16
42 41 40
43 0 43
43 1 7
43 2 22
43 3 1
43 4 35
43 5 4
43 6 4
43 7 42
43 8 42
43 9 5
43 10 13
43 11 12
43 12 35
43 13 27
43 14 48
43 15 34
43 16 10
43 17 13
43 18 11
43 19 43
43 20 23
43 21 26
43 22 36
43 23 11
43 24 31
43 25 19
43 26 32
43 27 39
43 28 46
43 29 12
43 30 6
43 31 24
43 32 28
43 33 42
43 34 40
43 35 11
43 36 30
43 37 2
43 38 42
43 39 47
43 40 42
43 41 40
43 42 34
44 0 32
44 1 40
44 2 32
44 3 24
44 4 17
44 5 46
44 6 12
44 7 41
44 8 1
44 9 32
44 10 37
44 11 6
44 12 16
44 13 13
44 14 29
44 15 4
44 16 20
44 17 21
44 18 9
44 19 40
44 20 16
44 21 26
44 22 12
44 23 31
44 24 40
44 25 50
44 26 23
44 27 33
44 28 15
44 29 32
44 30 32
44 31 35
44 32 25
44 33 26
44 34 43
44 35 46
44 36 49
44 37 33
44 38 2
44 39 30
44 40 30
44 41 46
44 42 42
44 43 29
45 0 31
45 1 45
45 2 4
45 3 25
45 4 45
45 5 3
45 6 3
45 7 46
45 8 20
45 9 18
45 10 4
45 11 27
45 12 9
45 13 28
45 14 35
45 15 38
45 16 20
45 17 34
45 18 44
45 19 32
45 20 40
45 21 1
45 22 23
45 23 25
45 24 8
45 25 24
45 26 28
45 27 27
45 28 26
45 29 20
45 30 34
45 31 47
45 32 42
45 33 50
45 34 38
45 35 41
45 36 40
45 37 18
45 38 17
45 39 40
45 40 43
45 41 9
45 42 40
45 43 44
45 44 22
46 0 47
46 1 3
46 2 3
46 3 15
46 4 11
46 5 18
46 6 47
46 7 12
46 8 16
46 9 50
46 10 8
46 11 33
46 12 20
46 13 6
46 14 13
46 15 30
46 16 30
46 17 43
46 18 37
46 19 24
46 20 15
46 21 36
46 22 50
46 23 35
46 24 50
46 25 29
46 26 22
46 27 12
46 28 33
46 29 45
46 30 22
46 31 35
46 32 42
46 33 13
46 34 9
46 35 3
46 36 11
46 37 43
46 38 5
46 39 41
46 40 3
46 41 44
46 42 22
46 43 44
46 44 17
46 45 41
47 0 42
47 1 47
47 2 27
47 3 5
47 4 8
47 5 16
47 6 36
47 7 38
47 8 49
47 9 24
47 10 41
47 11 39
47 12 25
47 13 45
47 14 40
47 15 22
47 16 29
47 17 34
47 18 37
47 19 42
47 20 17
47 21 11
47 22 11
47 23 26
47 24 26
47 25 2
47 26 24
47 27 30
47 28 26
47 29 12
47 30 5
47 31 48
47 32 39
47 33 19
47 34 24
47 35 29
47 36 43
47 37 34
47 38 8
47 39 36
47 40 31
47 41 46
47 42 35
47 43 41
47 44 4
47 45 21
47 46 41
48 0 17
48 1 48
48 2 45
48 3 47
48 4 25
48 5 8
48 6 3
48 7 14
48 8 9
48 9 21
48 10 22
48 11 17
48 12 10
48 13 47
48 14 30
48 15 8
48 16 24
48 17 45
48 18 41
48 19 46
48 20 21
48 21 50
48 22 49
48 23 26
48 24 43
48 25 28
48 26 47
48 27 24
48 28 41
48 29 35
48 30 1
48 31 12
48 32 43
48 33 26
48 34 13
48 35 20
48 36 31
48 37 37
48 38 10
48 39 42
48 40 47
48 41 43
48 42 49
48 43 38
48 44 36
48 45 35
48 46 32
48 47 35
49 0 15
49 1 12
49 2 35
49 3 25
49 4 2
49 5 1
49 6 3
49 7 28
49 8 18
49 9 8
49 10 5
49 11 41
49 12 27
49 13 11
49 14 49
49 15 29
49 16 50
49 17 20
49 18 17
49 19 31
49 20 27
49 21 21
49 22 41
49 23 35
49 24 20
49 25 23
49 26 22
49 27 9
49 28 28
49 29 49
49 30 15
49 31 19
49 32 40
49 33 1
49 34 19
49 35 44
49 36 30
49 37 32
49 38 29
49 39 40
49 40 33
49 41 17
49 42 50
49 43 9
49 44 44
49 45 35
49 46 49
49 47 21
49 48 41
50 0 41
50 1 42
50 2 33
50 3 4
50 4 37
50 5 9
50 6 42
50 7 9
50 8 23
50 9 40
50 10 14
50 11 47
50 12 9
50 13 7
50 14 18
50 15 8
50 16 22
50 17 25
50 18 33
50 19 19
50 20 36
50 21 25
50 22 23
50 23 44
50 24 29
50 25 31
50 26 32
50 27 10
50 28 18
50 29 28
50 30 8
50 31 50
50 32 49
50 33 1
50 34 45
50 35 42
50 36 17
50 37 49
50 38 21
50 39 13
50 40 27
50 41 35
50 42 41
50 43 9
50 44 40
50 45 40
50 46 6
50 47 42
50 48 34
50 49 24
51 0 14
51 1 12
51 2 8
51 3 19
51 4 16
51 5 12
51 6 38
51 7 42
51 8 44
51 9 35
51 10 20
51 11 29
51 12 6
51 13 4
51 14 49
51 15 2
51 16 4
51 17 36
51 18 44
51 19 40
51 20 29
51 21 21
51 22 39
51 23 38
51 24 31
51 25 14
51 26 14
51 27 20
51 28 20
51 29 43
51 30 37
51 31 44
51 32 48
51 33 45
51 34 44
51 35 45
51 36 33
51 37 21
51 38 6
51 39 34
51 40 4
51 41 48
51 42 50
51 43 25
51 44 13
51 45 1
51 46 36
51 47 21
51 48 4
51 49 11
51 50 49
52 0 23
52 1 23
52 2 32
52 3 24
52 4 5
52 5 19
52 6 10
52 7 49
52 8 44
52 9 8
52 10 20
52 11 19
52 12 38
52 13 27
52 14 26
52 15 30
52 16 7
52 17 8
52 18 3
52 19 4
52 20 45
52 21 37
52 22 9
52 23 10
52 24 42
52 25 8
52 26 23
52 27 42
52 28 21
52 29 48
52 30 46
52 31 50
52 32 24
52 33 1
52 34 25
52 35 11
52 36 34
52 37 35
52 38 14
52 39 3
52 40 25
52 41 20
52 42 50
52 43 4
52 44 9
52 45 22
52 46 48
52 47 43
52 48 7
52 49 39
52 50 2
52 51 13
53 0 13
53 1 35
53 2 38
53 3 37
53 4 34
53 5 49
53 6 12
53 7 28
53 8 21
53 9 37
53 10 43
53 11 4
53 12 22
53 13 48
53 14 30
53 15 31
53 16 33
53 17 43
53 18 36
53 19 20
53 20 7
53 21 4
53 22 6
53 23 42
53 24 25
53 25 28
53 26 12
53 27 44
53 28 6
53 29 35
53 30 50
53 31 13
53 32 50
53 33 49
53 34 25
53 35 3
53 36 44
53 37 14
53 38 39
53 39 32
53 40 22
53 41 19
53 42 45
53 43 1
53 44 19
53 45 33
53 46 48
53 47 13
53 48 47
53 49 43
53 50 46
53 51 23
53 52 41
54 0 5
54 1 23
54 2 5
54 3 44
54 4 8
54 5 49
54 6 23
54 7 5
54 8 12
54 9 34
54 10 35
54 11 10
54 12 36
54 13 10
54 14 9
54 15 33
54 16 47
54 17 22
54 18 13
54 19 18
54 20 34
54 21 13
54 22 5
54 23 15
54 24 4
54 25 19
54 26 36
54 27 22
54 28 9
54 29 44
54 30 11
54 31 3
54 32 5
54 33 20
54 34 39
54 35 33
54 36 39
54 37 38
54 38 44
54 39 4
54 40 36
54 41 17
54 42 50
54 43 12
54 44 3
54 45 50
54 46 27
54 47 47
54 48 8
54 49 47
54 50 48
54 51 27
54 52 8
54 53 36
55 0 4
55 1 23
55 2 31
55 3 48
55 4 15
55 5 27
55 6 41
55 7 32
55 8 6
55 9 11
55 10 24
55 11 20
55 12 50
55 13 36
55 14 9
55 15 28
55 16 43
55 17 34
55 18 19
55 19 10
55 20 20
55 21 7
55 22 2
55 23 35
55 24 1
55 25 33
55 26 10
55 27 42
55 28 25
55 29 2
55 30 1
55 31 13
55 32 5
55 33 39
55 34 5
55 35 18
55 36 5
55 37 27
55 38 7
55 39 36
55 40 45
55 41 50
55 42 9
55 43 21
55 44 6
55 45 46
55 46 8
55 47 5
55 48 21
55 49 15
55 50 14
55 51 40
55 52 38
55 53 1
55 54 26
56 0 14
56 1 36
56 2 18
56 3 23
56 4 42
56 5 38
56 6 6
56 7 48
56 8 15
56 9 26
56 10 17
56 11 30
56 12 16
56 13 38
56 14 50
56 15 37
56 16 20
56 17 29
56 18 42
56 19 36
56 20 14
56 21 30
56 22 28
56 23 29
56 24 16
56 25 37
56 26 38
56 27 13
56 28 21
56 29 27
56 30 26
56 31 6
56 32 14
56 33 49
56 34 23
56 35 13
56 36 14
56 37 37
56 38 32
56 39 8
56 40 6
56 41 44
56 42 38
56 43 20
56 44 2
56 45 27
56 46 8
56 47 22
56 48 14
56 49 12
56 50 13
56 51 49
56 52 7
56 53 44
56 54 33
56 55 9
57 0 40
57 1 10
57 2 28
57 3 40
57 4 24
57 5 35
57 6 6
57 7 3
57 8 8
57 9 11
57 10 35
57 11 40
57 12 23
57 13 17
57 14 24
57 15 7
57 16 19
57 17 40
57 18 25
57 19 43
57 20 28
57 21 2
57 22 21
57 23 6
57 24 29
57 25 6
57 26 15
57 27 10
57 28 43
57 29 17
57 30 25
57 31 25
57 32 2
57 33 7
57 34 15
57 35 44
57 36 50
57 37 28
57 38 31
57 39 6
57 40 39
57 41 42
57 42 26
57 43 4
57 44 5
57 45 19
57 46 44
57 47 36
57 48 19
57 49 44
57 50 22
57 51 20
57 52 8
57 53 14
57 54 29
57 55 34
57 56 30
58 0 16
58 1 47
58 2 42
58 3 18
58 4 8
58 5 46
58 6 41
58 7 2
58 8 44
58 9 6
58 10 50
58 11 45
58 12 38
58 13 28
58 14 27
58 15 35
58 16 10
58 17 28
58 18 38
58 19 38
58 20 20
58 21 44
58 22 44
58 23 29
58 24 30
58 25 7
58 26 13
58 27 41
58 28 26
58 29 23
58 30 45
58 31 4
58 32 42
58 33 25
58 34 26
58 35 7
58 36 13
58 37 41
58 38 2
58 39 29
58 40 28
58 41 8
58 42 50
58 43 27
58 44 6
58 45 27
58 46 44
58 47 36
58 48 22
58 49 46
58 50 5
58 51 9
58 52 33
58 53 41
58 54 33
58 55 47
58 56 11
58 57 14
59 0 31
59 1 28
59 2 6
59 3 6
59 4 18
59 5 33
59 6 24
59 7 3
59 8 43
59 9 30
59 10 9
59 11 23
59 12 30
59 13 31
59 14 2
59 15 40
59 16 49
59 17 1
59 18 29
59 19 36
59 20 48
59 21 8
59 22 21
59 23 35
59 24 43
59 25 38
59 26 49
59 27 28
59 28 4
59 29 18
59 30 37
59 31 8
59 32 13
59 33 46
59 34 29
59 35 19
59 36 18
59 37 12
59 38 33
59 39 40
59 40 23
59 41 23
59 42 2
59 43 49
59 44 19
59 45 43
59 46 45
59 47 13
59 48 11
59 49 29
59 50 6
59 51 9
59 52 40
59 53 18
59 54 33
59 55 17
59 56 10
59 57 47
59 58 34
